SAT
36 28 17 24 -68 -27 -115 125 -93 -8 132 -131 79 -20 57 158 -107 160 -97 77 5 -84 -106 30 67 63 -19 46 -40 -100 58 -54 156 89 21 -49 -128 98 60 -150 -104 -155 76 -56 112 162 144 90 34 -6 -55 -122 -136 -138 -121 -133 13 170 51 -101 165 -52 -82 113 18 -124 161 66 87 123 86 139 74 109 171 111 -23 135 -92 -29 -143 -88 -81 78 174 -72 -134 141 -1 12 3 -127 -91 -15 22 -32 75 -167 168 50 145 38 31 164 148 -69 -4 -83 -157 129 73 26 10 154 25 35 -110 -39 -95 64 70 -65 -9 142 137 59 152 175 -130 61 146 33 80 -163 2 103 -116 62 -105 -120 147 -85 -151 -169 44 -37 -41 -42 119 -99 149 159 -114 -140 48 53 153 -102 -117 173 43 -7 126 -96 94 -71 108 -16 -14 -11 172 -166 -118 -47 -45 0
